p cnf 15 63
-10 -4 -12 0
11 -10 -4 0
9 1 -3 0
-13 11 -14 0
10 -2 -9 0
-4 -7 -6 0
-12 -10 8 0
3 4 10 0
-4 5 -13 0
-6 5 1 0
-6 3 -9 0
-12 11 -4 0
11 12 -6 0
-12 8 -1 0
12 -3 7 0
-5 -6 -8 0
-6 -7 -1 0
14 -7 9 0
1 7 -4 0
8 -9 12 0
-2 -1 13 0
-11 15 -4 0
-6 4 -15 0
14 4 10 0
-4 -9 8 0
8 10 -5 0
10 14 -2 0
-11 -15 -9 0
9 -3 14 0
12 -11 -5 0
15 14 10 0
-7 -6 4 0
3 14 -12 0
4 -11 -15 0
5 -11 -10 0
6 -12 3 0
2 3 -8 0
-7 11 -9 0
-2 -7 3 0
2 3 -11 0
-3 12 5 0
15 -4 9 0
-5 6 -13 0
-2 15 1 0
10 -9 -1 0
3 -8 -6 0
-4 -2 -9 0
3 5 4 0
-3 2 -6 0
10 3 1 0
-9 -10 15 0
4 -5 -10 0
-14 -12 -4 0
-13 6 15 0
4 14 -10 0
4 -5 9 0
3 -2 5 0
-10 8 -12 0
-1 13 3 0
1 3 -12 0
-4 -5 13 0
-15 11 4 0
-11 -4 -7 0
